=1
=2
=0IBM ILOG CPLEX   53.5.0 5dc151ca May 5, 2026           DAC arm 64bit/macOS    
=1
--- GAMS/CPLEX licensed for continuous and discrete problems.
=2
=1
--- GMO setup time: 0.00s
=2
=1
--- Space for names approximately 10.01 Mb
=2
=1
--- Use option 'names no' to turn use of names off
=2
=1
--- GMO memory 68.75 Mb (peak 69.96 Mb)
=2
=1
--- Dictionary memory 0.00 Mb
=2
=1
--- Cplex 22.1.2.0 link memory 5.45 Mb (peak 24.10 Mb)
=2
=1
--- Starting Cplex
=2
=C
Version identifier: 22.1.2.0 | 2024-12-02 | 8bd2200c8
CPXPARAM_Advance                                 2
CPXPARAM_MIP_Display                             4
CPXPARAM_MIP_Pool_Capacity                       0
3036                                             1
CPXPARAM_MIP_Tolerances_AbsMIPGap                0
Parallel mode: deterministic, using up to 10 threads for concurrent optimization:
 * Starting dual Simplex on 1 thread...
 * Starting Barrier on 8 threads...
 * Starting primal Simplex on 1 thread...
Tried aggregator 1 time.
LP Presolve eliminated 63594 rows and 6583 columns.
Aggregator did 4389 substitutions.
Reduced LP has 144735 rows, 146925 columns, and 385956 nonzeros.
Presolve time = 0.15 sec. (196.44 ticks)

Iteration log . . .
Iteration:     1   Dual infeasibility =         11225.229548
Iteration:  1686   Dual infeasibility =          7619.462495
Iteration:  3447   Dual infeasibility =          3251.547391
Iteration:  4312   Dual objective     =       3791662.725233

Primal simplex solved model.

=C
=1
--- LP status (1): optimal.
=2
=1
--- Cplex Time: 0.46sec (det. 798.83 ticks)

=2
=C
=COptimal solution found
=CObjective:       111645.168451
=C
